p cnf 383 1003
17 26 0 
-17 -26 0 
35 44 0 
-35 -44 0 
140 142 144 146 0 
-140 -142 0 
-140 -144 0 
-140 -146 0 
-142 -144 0 
-142 -146 0 
-144 -146 0 
156 158 160 162 0 
-156 -158 0 
-156 -160 0 
-156 -162 0 
-158 -160 0 
-158 -162 0 
-160 -162 0 
172 174 176 178 0 
-172 -174 0 
-172 -176 0 
-172 -178 0 
-174 -176 0 
-174 -178 0 
-176 -178 0 
180 182 184 186 0 
-180 -182 0 
-180 -184 0 
-180 -186 0 
-182 -184 0 
-182 -186 0 
-184 -186 0 
-17 -304 248 0 
-17 -304 -248 0 
-17 -305 249 0 
-17 -305 -248 0 
-26 -306 248 0 
-26 -306 -249 0 
-26 -307 249 0 
-26 -307 -249 0 
-35 -308 250 0 
-35 -308 -250 0 
-35 -309 251 0 
-35 -309 -250 0 
-44 -310 250 0 
-44 -310 -251 0 
-44 -311 251 0 
-44 -311 -251 0 
-17 -312 248 0 
-17 -312 -248 0 
-17 -313 249 0 
-17 -313 -248 0 
-26 -314 248 0 
-26 -314 -249 0 
-26 -315 249 0 
-26 -315 -249 0 
-35 -316 250 0 
-35 -316 -250 0 
-35 -317 251 0 
-35 -317 -250 0 
-44 -318 250 0 
-44 -318 -251 0 
-44 -319 251 0 
-44 -319 -251 0 
-17 -320 266 0 
-17 -320 -252 0 
-17 -321 266 0 
-17 -321 -253 0 
-17 -322 266 0 
-17 -322 -254 0 
-17 -323 266 0 
-17 -323 -255 0 
-26 -324 266 0 
-26 -324 -256 0 
-26 -325 266 0 
-26 -325 -257 0 
-26 -326 266 0 
-26 -326 -258 0 
-26 -327 266 0 
-26 -327 -259 0 
-35 -328 267 0 
-35 -328 -252 0 
-35 -329 267 0 
-35 -329 -253 0 
-35 -330 267 0 
-35 -330 -254 0 
-35 -331 267 0 
-35 -331 -255 0 
-44 -332 267 0 
-44 -332 -256 0 
-44 -333 267 0 
-44 -333 -257 0 
-44 -334 267 0 
-44 -334 -258 0 
-44 -335 267 0 
-44 -335 -259 0 
-17 -336 252 0 
-17 -336 -266 0 
-17 -337 253 0 
-17 -337 -266 0 
-17 -338 254 0 
-17 -338 -266 0 
-17 -339 255 0 
-17 -339 -266 0 
-26 -340 256 0 
-26 -340 -266 0 
-26 -341 257 0 
-26 -341 -266 0 
-26 -342 258 0 
-26 -342 -266 0 
-26 -343 259 0 
-26 -343 -266 0 
-35 -344 252 0 
-35 -344 -267 0 
-35 -345 253 0 
-35 -345 -267 0 
-35 -346 254 0 
-35 -346 -267 0 
-35 -347 255 0 
-35 -347 -267 0 
-44 -348 256 0 
-44 -348 -267 0 
-44 -349 257 0 
-44 -349 -267 0 
-44 -350 258 0 
-44 -350 -267 0 
-44 -351 259 0 
-44 -351 -267 0 
-132 -352 300 0 
-132 -352 -268 0 
-134 -353 300 0 
-134 -353 -269 0 
-136 -354 300 0 
-136 -354 -270 0 
-138 -355 300 0 
-138 -355 -271 0 
-140 -356 300 0 
-140 -356 -272 0 
-142 -357 300 0 
-142 -357 -273 0 
-144 -358 300 0 
-144 -358 -274 0 
-146 -359 300 0 
-146 -359 -275 0 
-148 -360 301 0 
-148 -360 -276 0 
-150 -361 301 0 
-150 -361 -277 0 
-152 -362 301 0 
-152 -362 -278 0 
-154 -363 301 0 
-154 -363 -279 0 
-156 -364 301 0 
-156 -364 -280 0 
-158 -365 301 0 
-158 -365 -281 0 
-160 -366 301 0 
-160 -366 -282 0 
-162 -367 301 0 
-162 -367 -283 0 
-164 -368 302 0 
-164 -368 -284 0 
-166 -369 302 0 
-166 -369 -285 0 
-168 -370 302 0 
-168 -370 -286 0 
-170 -371 302 0 
-170 -371 -287 0 
-172 -372 302 0 
-172 -372 -288 0 
-174 -373 302 0 
-174 -373 -289 0 
-176 -374 302 0 
-176 -374 -290 0 
-178 -375 302 0 
-178 -375 -291 0 
-180 -376 303 0 
-180 -376 -292 0 
-182 -377 303 0 
-182 -377 -293 0 
-184 -378 303 0 
-184 -378 -294 0 
-186 -379 303 0 
-186 -379 -295 0 
-188 -380 303 0 
-188 -380 -296 0 
-190 -381 303 0 
-190 -381 -297 0 
-192 -382 303 0 
-192 -382 -298 0 
-194 -383 303 0 
-194 -383 -299 0 
-1 232 0 
1 -232 0 
-2 233 0 
2 -233 0 
-3 234 0 
3 -234 0 
-4 235 0 
4 -235 0 
-5 236 0 
5 -236 0 
-6 237 0 
6 -237 0 
-7 238 0 
7 -238 0 
-8 239 0 
8 -239 0 
-9 240 0 
9 -240 0 
-10 241 0 
10 -241 0 
-11 242 0 
11 -242 0 
-12 243 0 
12 -243 0 
-13 244 0 
13 -244 0 
-14 245 0 
14 -245 0 
-15 246 0 
15 -246 0 
-16 247 0 
16 -247 0 
-17 -304 18 0 
-18 17 0 
-18 304 0 
-17 -305 19 0 
-19 17 0 
-19 305 0 
-17 -312 20 0 
-20 17 0 
-20 312 0 
-17 -313 21 0 
-21 17 0 
-21 313 0 
18 19 20 21 -17 248 0 
-17 -304 22 0 
-22 17 0 
-22 304 0 
-26 -306 23 0 
-23 26 0 
-23 306 0 
-17 -312 24 0 
-24 17 0 
-24 312 0 
-26 -314 25 0 
-25 26 0 
-25 314 0 
22 23 24 25 17 -248 0 
-26 -306 27 0 
-27 26 0 
-27 306 0 
-26 -307 28 0 
-28 26 0 
-28 307 0 
-26 -314 29 0 
-29 26 0 
-29 314 0 
-26 -315 30 0 
-30 26 0 
-30 315 0 
27 28 29 30 -26 249 0 
-17 -305 31 0 
-31 17 0 
-31 305 0 
-26 -307 32 0 
-32 26 0 
-32 307 0 
-17 -313 33 0 
-33 17 0 
-33 313 0 
-26 -315 34 0 
-34 26 0 
-34 315 0 
31 32 33 34 26 -249 0 
-35 -308 36 0 
-36 35 0 
-36 308 0 
-35 -309 37 0 
-37 35 0 
-37 309 0 
-35 -316 38 0 
-38 35 0 
-38 316 0 
-35 -317 39 0 
-39 35 0 
-39 317 0 
36 37 38 39 -35 250 0 
-35 -308 40 0 
-40 35 0 
-40 308 0 
-44 -310 41 0 
-41 44 0 
-41 310 0 
-35 -316 42 0 
-42 35 0 
-42 316 0 
-44 -318 43 0 
-43 44 0 
-43 318 0 
40 41 42 43 35 -250 0 
-44 -310 45 0 
-45 44 0 
-45 310 0 
-44 -311 46 0 
-46 44 0 
-46 311 0 
-44 -318 47 0 
-47 44 0 
-47 318 0 
-44 -319 48 0 
-48 44 0 
-48 319 0 
45 46 47 48 -44 251 0 
-35 -309 49 0 
-49 35 0 
-49 309 0 
-44 -311 50 0 
-50 44 0 
-50 311 0 
-35 -317 51 0 
-51 35 0 
-51 317 0 
-44 -319 52 0 
-52 44 0 
-52 319 0 
49 50 51 52 44 -251 0 
-17 -320 53 0 
-53 17 0 
-53 320 0 
-35 -328 54 0 
-54 35 0 
-54 328 0 
53 54 252 0 
-17 -336 55 0 
-55 17 0 
-55 336 0 
-35 -344 56 0 
-56 35 0 
-56 344 0 
-17 -321 58 0 
-58 17 0 
-58 321 0 
-35 -329 59 0 
-59 35 0 
-59 329 0 
58 59 -57 253 0 
-17 -337 60 0 
-60 17 0 
-60 337 0 
-35 -345 61 0 
-61 35 0 
-61 345 0 
60 61 57 -253 0 
-17 -322 63 0 
-63 17 0 
-63 322 0 
-35 -330 64 0 
-64 35 0 
-64 330 0 
63 64 -62 254 0 
-17 -338 65 0 
-65 17 0 
-65 338 0 
-35 -346 66 0 
-66 35 0 
-66 346 0 
65 66 62 -254 0 
-17 -323 68 0 
-68 17 0 
-68 323 0 
-35 -331 69 0 
-69 35 0 
-69 331 0 
68 69 -67 255 0 
-17 -339 70 0 
-70 17 0 
-70 339 0 
-35 -347 71 0 
-71 35 0 
-71 347 0 
70 71 67 -255 0 
-26 -324 73 0 
-73 26 0 
-73 324 0 
-44 -332 74 0 
-74 44 0 
-74 332 0 
73 74 -72 256 0 
-26 -340 75 0 
-75 26 0 
-75 340 0 
-44 -348 76 0 
-76 44 0 
-76 348 0 
75 76 72 -256 0 
-26 -325 78 0 
-78 26 0 
-78 325 0 
-44 -333 79 0 
-79 44 0 
-79 333 0 
78 79 -77 257 0 
-26 -341 80 0 
-80 26 0 
-80 341 0 
-44 -349 81 0 
-81 44 0 
-81 349 0 
80 81 77 -257 0 
-26 -326 83 0 
-83 26 0 
-83 326 0 
-44 -334 84 0 
-84 44 0 
-84 334 0 
83 84 -82 258 0 
-26 -342 85 0 
-85 26 0 
-85 342 0 
-44 -350 86 0 
-86 44 0 
-86 350 0 
85 86 82 -258 0 
-26 -327 88 0 
-88 26 0 
-88 327 0 
-44 -335 89 0 
-89 44 0 
-89 335 0 
88 89 -87 259 0 
-26 -343 90 0 
-90 26 0 
-90 343 0 
-44 -351 91 0 
-91 44 0 
-91 351 0 
90 91 87 -259 0 
-92 260 0 
92 -260 0 
-93 261 0 
93 -261 0 
-94 262 0 
94 -262 0 
-95 263 0 
95 -263 0 
-96 264 0 
96 -264 0 
-97 265 0 
97 -265 0 
-17 -336 99 0 
-99 17 0 
-99 336 0 
-17 -337 100 0 
-100 17 0 
-100 337 0 
-17 -338 101 0 
-101 17 0 
-101 338 0 
-17 -339 102 0 
-102 17 0 
-102 339 0 
-26 -340 103 0 
-103 26 0 
-103 340 0 
-26 -341 104 0 
-104 26 0 
-104 341 0 
-26 -342 105 0 
-105 26 0 
-105 342 0 
-26 -343 106 0 
-106 26 0 
-106 343 0 
99 100 101 102 103 104 105 106 -98 266 0 
-17 -320 107 0 
-107 17 0 
-107 320 0 
-17 -321 108 0 
-108 17 0 
-108 321 0 
-17 -322 109 0 
-109 17 0 
-109 322 0 
-17 -323 110 0 
-110 17 0 
-110 323 0 
-26 -324 111 0 
-111 26 0 
-111 324 0 
-26 -325 112 0 
-112 26 0 
-112 325 0 
-26 -326 113 0 
-113 26 0 
-113 326 0 
-26 -327 114 0 
-114 26 0 
-114 327 0 
107 108 109 110 111 112 113 114 98 -266 0 
-35 -344 116 0 
-116 35 0 
-116 344 0 
-35 -345 117 0 
-117 35 0 
-117 345 0 
-35 -346 118 0 
-118 35 0 
-118 346 0 
-35 -347 119 0 
-119 35 0 
-119 347 0 
-44 -348 120 0 
-120 44 0 
-120 348 0 
-44 -349 121 0 
-121 44 0 
-121 349 0 
-44 -350 122 0 
-122 44 0 
-122 350 0 
-44 -351 123 0 
-123 44 0 
-123 351 0 
116 117 118 119 120 121 122 123 -115 267 0 
-35 -328 124 0 
-124 35 0 
-124 328 0 
-35 -329 125 0 
-125 35 0 
-125 329 0 
-35 -330 126 0 
-126 35 0 
-126 330 0 
-35 -331 127 0 
-127 35 0 
-127 331 0 
-44 -332 128 0 
-128 44 0 
-128 332 0 
-44 -333 129 0 
-129 44 0 
-129 333 0 
-44 -334 130 0 
-130 44 0 
-130 334 0 
-44 -335 131 0 
-131 44 0 
-131 335 0 
124 125 126 127 128 129 130 131 115 -267 0 
-132 -352 133 0 
-133 132 0 
-133 352 0 
133 -132 268 0 
132 -268 0 
-134 -353 135 0 
-135 134 0 
-135 353 0 
135 -134 269 0 
134 -269 0 
-136 -354 137 0 
-137 136 0 
-137 354 0 
137 -136 270 0 
136 -270 0 
-138 -355 139 0 
-139 138 0 
-139 355 0 
139 -138 271 0 
138 -271 0 
-140 -356 141 0 
-141 140 0 
-141 356 0 
141 -140 272 0 
140 -272 0 
-142 -357 143 0 
-143 142 0 
-143 357 0 
143 -142 273 0 
142 -273 0 
-144 -358 145 0 
-145 144 0 
-145 358 0 
145 -144 274 0 
144 -274 0 
-146 -359 147 0 
-147 146 0 
-147 359 0 
147 -146 275 0 
146 -275 0 
-148 -360 149 0 
-149 148 0 
-149 360 0 
149 -148 276 0 
148 -276 0 
-150 -361 151 0 
-151 150 0 
-151 361 0 
151 -150 277 0 
150 -277 0 
-152 -362 153 0 
-153 152 0 
-153 362 0 
153 -152 278 0 
152 -278 0 
-154 -363 155 0 
-155 154 0 
-155 363 0 
155 -154 279 0 
154 -279 0 
-156 -364 157 0 
-157 156 0 
-157 364 0 
157 -156 280 0 
156 -280 0 
-158 -365 159 0 
-159 158 0 
-159 365 0 
159 -158 281 0 
158 -281 0 
-160 -366 161 0 
-161 160 0 
-161 366 0 
161 -160 282 0 
160 -282 0 
-162 -367 163 0 
-163 162 0 
-163 367 0 
163 -162 283 0 
162 -283 0 
-164 -368 165 0 
-165 164 0 
-165 368 0 
165 -164 284 0 
164 -284 0 
-166 -369 167 0 
-167 166 0 
-167 369 0 
167 -166 285 0 
166 -285 0 
-168 -370 169 0 
-169 168 0 
-169 370 0 
169 -168 286 0 
168 -286 0 
-170 -371 171 0 
-171 170 0 
-171 371 0 
171 -170 287 0 
170 -287 0 
-172 -372 173 0 
-173 172 0 
-173 372 0 
173 -172 288 0 
172 -288 0 
-174 -373 175 0 
-175 174 0 
-175 373 0 
175 -174 289 0 
174 -289 0 
-176 -374 177 0 
-177 176 0 
-177 374 0 
177 -176 290 0 
176 -290 0 
-178 -375 179 0 
-179 178 0 
-179 375 0 
179 -178 291 0 
178 -291 0 
-180 -376 181 0 
-181 180 0 
-181 376 0 
181 -180 292 0 
180 -292 0 
-182 -377 183 0 
-183 182 0 
-183 377 0 
183 -182 293 0 
182 -293 0 
-184 -378 185 0 
-185 184 0 
-185 378 0 
185 -184 294 0 
184 -294 0 
-186 -379 187 0 
-187 186 0 
-187 379 0 
187 -186 295 0 
186 -295 0 
-188 -380 189 0 
-189 188 0 
-189 380 0 
189 -188 296 0 
188 -296 0 
-190 -381 191 0 
-191 190 0 
-191 381 0 
191 -190 297 0 
190 -297 0 
-192 -382 193 0 
-193 192 0 
-193 382 0 
193 -192 298 0 
192 -298 0 
-194 -383 195 0 
-195 194 0 
-195 383 0 
195 -194 299 0 
194 -299 0 
-196 300 0 
-132 -352 197 0 
-197 132 0 
-197 352 0 
-134 -353 198 0 
-198 134 0 
-198 353 0 
-136 -354 199 0 
-199 136 0 
-199 354 0 
-138 -355 200 0 
-200 138 0 
-200 355 0 
-140 -356 201 0 
-201 140 0 
-201 356 0 
-142 -357 202 0 
-202 142 0 
-202 357 0 
-144 -358 203 0 
-203 144 0 
-203 358 0 
-146 -359 204 0 
-204 146 0 
-204 359 0 
197 198 199 200 201 202 203 204 196 -300 0 
-205 301 0 
-148 -360 206 0 
-206 148 0 
-206 360 0 
-150 -361 207 0 
-207 150 0 
-207 361 0 
-152 -362 208 0 
-208 152 0 
-208 362 0 
-154 -363 209 0 
-209 154 0 
-209 363 0 
-156 -364 210 0 
-210 156 0 
-210 364 0 
-158 -365 211 0 
-211 158 0 
-211 365 0 
-160 -366 212 0 
-212 160 0 
-212 366 0 
-162 -367 213 0 
-213 162 0 
-213 367 0 
206 207 208 209 210 211 212 213 205 -301 0 
-214 302 0 
-164 -368 215 0 
-215 164 0 
-215 368 0 
-166 -369 216 0 
-216 166 0 
-216 369 0 
-168 -370 217 0 
-217 168 0 
-217 370 0 
-170 -371 218 0 
-218 170 0 
-218 371 0 
-172 -372 219 0 
-219 172 0 
-219 372 0 
-174 -373 220 0 
-220 174 0 
-220 373 0 
-176 -374 221 0 
-221 176 0 
-221 374 0 
-178 -375 222 0 
-222 178 0 
-222 375 0 
215 216 217 218 219 220 221 222 214 -302 0 
-223 303 0 
-180 -376 224 0 
-224 180 0 
-224 376 0 
-182 -377 225 0 
-225 182 0 
-225 377 0 
-184 -378 226 0 
-226 184 0 
-226 378 0 
-186 -379 227 0 
-227 186 0 
-227 379 0 
-188 -380 228 0 
-228 188 0 
-228 380 0 
-190 -381 229 0 
-229 190 0 
-229 381 0 
-192 -382 230 0 
-230 192 0 
-230 382 0 
-194 -383 231 0 
-231 194 0 
-231 383 0 
224 225 226 227 228 229 230 231 223 -303 0 
-304 -305 0 
-304 -306 0 
-304 -312 0 
-304 -313 0 
-304 -314 0 
-305 -306 0 
-305 -307 0 
-305 -312 0 
-305 -314 0 
-305 -315 0 
-306 -307 0 
-306 -312 0 
-306 -313 0 
-306 -315 0 
-307 -313 0 
-307 -314 0 
-307 -315 0 
-308 -309 0 
-308 -310 0 
-308 -316 0 
-308 -317 0 
-308 -318 0 
-309 -310 0 
-309 -311 0 
-309 -316 0 
-309 -318 0 
-309 -319 0 
-310 -311 0 
-310 -316 0 
-310 -317 0 
-310 -319 0 
-311 -317 0 
-311 -318 0 
-311 -319 0 
-312 -313 0 
-312 -314 0 
-313 -314 0 
-313 -315 0 
-314 -315 0 
-316 -317 0 
-316 -318 0 
-317 -318 0 
-317 -319 0 
-318 -319 0 
-320 -336 0 
-320 -337 0 
-320 -338 0 
-320 -339 0 
-320 -340 0 
-320 -341 0 
-320 -342 0 
-320 -343 0 
-320 -344 0 
-321 -336 0 
-321 -337 0 
-321 -338 0 
-321 -339 0 
-321 -340 0 
-321 -341 0 
-321 -342 0 
-321 -343 0 
-321 -345 0 
-322 -336 0 
-322 -337 0 
-322 -338 0 
-322 -339 0 
-322 -340 0 
-322 -341 0 
-322 -342 0 
-322 -343 0 
-322 -346 0 
-323 -336 0 
-323 -337 0 
-323 -338 0 
-323 -339 0 
-323 -340 0 
-323 -341 0 
-323 -342 0 
-323 -343 0 
-323 -347 0 
-324 -336 0 
-324 -337 0 
-324 -338 0 
-324 -339 0 
-324 -340 0 
-324 -341 0 
-324 -342 0 
-324 -343 0 
-324 -348 0 
-325 -336 0 
-325 -337 0 
-325 -338 0 
-325 -339 0 
-325 -340 0 
-325 -341 0 
-325 -342 0 
-325 -343 0 
-325 -349 0 
-326 -336 0 
-326 -337 0 
-326 -338 0 
-326 -339 0 
-326 -340 0 
-326 -341 0 
-326 -342 0 
-326 -343 0 
-326 -350 0 
-327 -336 0 
-327 -337 0 
-327 -338 0 
-327 -339 0 
-327 -340 0 
-327 -341 0 
-327 -342 0 
-327 -343 0 
-327 -351 0 
-328 -336 0 
-328 -344 0 
-328 -345 0 
-328 -346 0 
-328 -347 0 
-328 -348 0 
-328 -349 0 
-328 -350 0 
-328 -351 0 
-329 -337 0 
-329 -344 0 
-329 -345 0 
-329 -346 0 
-329 -347 0 
-329 -348 0 
-329 -349 0 
-329 -350 0 
-329 -351 0 
-330 -338 0 
-330 -344 0 
-330 -345 0 
-330 -346 0 
-330 -347 0 
-330 -348 0 
-330 -349 0 
-330 -350 0 
-330 -351 0 
-331 -339 0 
-331 -344 0 
-331 -345 0 
-331 -346 0 
-331 -347 0 
-331 -348 0 
-331 -349 0 
-331 -350 0 
-331 -351 0 
-332 -340 0 
-332 -344 0 
-332 -345 0 
-332 -346 0 
-332 -347 0 
-332 -348 0 
-332 -349 0 
-332 -350 0 
-332 -351 0 
-333 -341 0 
-333 -344 0 
-333 -345 0 
-333 -346 0 
-333 -347 0 
-333 -348 0 
-333 -349 0 
-333 -350 0 
-333 -351 0 
-334 -342 0 
-334 -344 0 
-334 -345 0 
-334 -346 0 
-334 -347 0 
-334 -348 0 
-334 -349 0 
-334 -350 0 
-334 -351 0 
-335 -343 0 
-335 -344 0 
-335 -345 0 
-335 -346 0 
-335 -347 0 
-335 -348 0 
-335 -349 0 
-335 -350 0 
-335 -351 0 
